flow=[(1,6,3)(5,0,1)(5,1,3)(5,2,1)(5,6,14)(5,8,2)(5,10,2)(5,11,14)(5,12,5)(5,13,2)(6,1,3)(6,5,3)(6,10,1)(6,11,10)(9,6,1)(10,4,3)(10,6,1)(10,9,4)(11,5,2)(11,6,3)(11,8,1)(11,10,1)(11,12,1)(12,1,1)(12,5,7)(12,6,6)(12,11,5)(12,13,3)];
